p cnf 3102
-17 -259
-18 -93
-19 -96
-20 -99
-21 -102
-22 -105
-23 -108
-24 -111
-25 -114
-26 -301
-27 -307
-28 -313
-29 -319
-30 -325
-31 -331
-32 -337
-33 -343
-34 -372
-35 -391
-36 -409
-37 -419
-38 -438
-39 -457
-40 -475
-41 -485
-42 -504
-43 -523
-44 -541
-45 -551
-46 -570
-47 -589
-48 -607
-49 -617
-50 -636
-51 -655
-52 -673
-53 -683
-54 -702
-55 -721
-56 -739
-57 -749
-58 -768
-59 -787
-60 -805
-61 -815
-62 -834
-63 -853
-64 -871
-65 -881
-66 -952
-67 -958
-68 -964
-69 -970
-70 1
-70 -26
-1 26 70
-71 2
-71 -27
-2 27 71
-72 3
-72 -28
-3 28 72
-73 4
-73 -29
-4 29 73
-74 5
-74 -30
-5 30 74
-75 6
-75 -31
-6 31 75
-76 7
-76 -32
-7 32 76
-77 8
-77 -33
-8 33 77
-78 -70
-78 71
70 -71 78
-79 -70
-79 -78
70 78 79
-80 72
-80 79
-72 -79 80
-81 79
-81 -80
-79 80 81
-82 73
-82 81
-73 -81 82
-83 81
-83 -82
-81 82 83
-84 74
-84 83
-74 -83 84
-85 83
-85 -84
-83 84 85
-86 75
-86 85
-75 -85 86
-87 85
-87 -86
-85 86 87
-88 76
-88 87
-76 -87 88
-89 87
-89 -88
-87 88 89
-90 77
-90 89
-77 -89 90
-91 -17
-91 70
17 -70 91
-92 17
-92 18
-17 -18 92
-93 -91
-93 -92
91 92 93
-94 -17
-94 78
17 -78 94
-95 17
-95 19
-17 -19 95
-96 -94
-96 -95
94 95 96
-97 -17
-97 80
17 -80 97
-98 17
-98 20
-17 -20 98
-99 -97
-99 -98
97 98 99
-100 -17
-100 82
17 -82 100
-101 17
-101 21
-17 -21 101
-102 -100
-102 -101
100 101 102
-103 -17
-103 84
17 -84 103
-104 17
-104 22
-17 -22 104
-105 -103
-105 -104
103 104 105
-106 -17
-106 86
17 -86 106
-107 17
-107 23
-17 -23 107
-108 -106
-108 -107
106 107 108
-109 -17
-109 88
17 -88 109
-110 17
-110 24
-17 -24 110
-111 -109
-111 -110
109 110 111
-112 -17
-112 90
17 -90 112
-113 17
-113 25
-17 -25 113
-114 -112
-114 -113
112 113 114
-115 1
-115 -93
-1 93 115
-116 2
-116 -96
-2 96 116
-117 3
-117 -99
-3 99 117
-118 4
-118 -102
-4 102 118
-119 5
-119 -105
-5 105 119
-120 6
-120 -108
-6 108 120
-121 7
-121 -111
-7 111 121
-122 8
-122 -114
-8 114 122
-123 34
-123 -35
-34 35 123
-124 -36
-124 -37
36 37 124
-125 123
-125 124
-123 -124 125
-126 -34
-126 -35
34 35 126
-127 -36
-127 37
36 -37 127
-128 126
-128 127
-126 -127 128
-129 -125
-129 -128
125 128 129
-130 115
-130 -129
-115 129 130
-131 38
-131 -39
-38 39 131
-132 -40
-132 -41
40 41 132
-133 131
-133 132
-131 -132 133
-134 -38
-134 -39
38 39 134
-135 -40
-135 41
40 -41 135
-136 134
-136 135
-134 -135 136
-137 -133
-137 -136
133 136 137
-138 116
-138 -137
-116 137 138
-139 42
-139 -43
-42 43 139
-140 -44
-140 -45
44 45 140
-141 139
-141 140
-139 -140 141
-142 -42
-142 -43
42 43 142
-143 -44
-143 45
44 -45 143
-144 142
-144 143
-142 -143 144
-145 -141
-145 -144
141 144 145
-146 117
-146 -145
-117 145 146
-147 46
-147 -47
-46 47 147
-148 -48
-148 -49
48 49 148
-149 147
-149 148
-147 -148 149
-150 -46
-150 -47
46 47 150
-151 -48
-151 49
48 -49 151
-152 150
-152 151
-150 -151 152
-153 -149
-153 -152
149 152 153
-154 118
-154 -153
-118 153 154
-155 50
-155 -51
-50 51 155
-156 -52
-156 -53
52 53 156
-157 155
-157 156
-155 -156 157
-158 -50
-158 -51
50 51 158
-159 -52
-159 53
52 -53 159
-160 158
-160 159
-158 -159 160
-161 -157
-161 -160
157 160 161
-162 119
-162 -161
-119 161 162
-163 54
-163 -55
-54 55 163
-164 -56
-164 -57
56 57 164
-165 163
-165 164
-163 -164 165
-166 -54
-166 -55
54 55 166
-167 -56
-167 57
56 -57 167
-168 166
-168 167
-166 -167 168
-169 -165
-169 -168
165 168 169
-170 120
-170 -169
-120 169 170
-171 58
-171 -59
-58 59 171
-172 -60
-172 -61
60 61 172
-173 171
-173 172
-171 -172 173
-174 -58
-174 -59
58 59 174
-175 -60
-175 61
60 -61 175
-176 174
-176 175
-174 -175 176
-177 -173
-177 -176
173 176 177
-178 121
-178 -177
-121 177 178
-179 62
-179 -63
-62 63 179
-180 -64
-180 -65
64 65 180
-181 179
-181 180
-179 -180 181
-182 -62
-182 -63
62 63 182
-183 -64
-183 65
64 -65 183
-184 182
-184 183
-182 -183 184
-185 -181
-185 -184
181 184 185
-186 122
-186 -185
-122 185 186
-187 -130
-187 -138
130 138 187
-188 -146
-188 -154
146 154 188
-189 -162
-189 -170
162 170 189
-190 -178
-190 -186
178 186 190
-191 187
-191 188
-187 -188 191
-192 189
-192 190
-189 -190 192
-193 191
-193 192
-191 -192 193
-194 -34
-194 35
34 -35 194
-195 36
-195 -37
-36 37 195
-196 194
-196 195
-194 -195 196
-197 36
-197 37
-36 -37 197
-198 123
-198 197
-123 -197 198
-199 -196
-199 -198
196 198 199
-200 115
-200 -199
-115 199 200
-201 -38
-201 39
38 -39 201
-202 40
-202 -41
-40 41 202
-203 201
-203 202
-201 -202 203
-204 40
-204 41
-40 -41 204
-205 131
-205 204
-131 -204 205
-206 -203
-206 -205
203 205 206
-207 116
-207 -206
-116 206 207
-208 -42
-208 43
42 -43 208
-209 44
-209 -45
-44 45 209
-210 208
-210 209
-208 -209 210
-211 44
-211 45
-44 -45 211
-212 139
-212 211
-139 -211 212
-213 -210
-213 -212
210 212 213
-214 117
-214 -213
-117 213 214
-215 -46
-215 47
46 -47 215
-216 48
-216 -49
-48 49 216
-217 215
-217 216
-215 -216 217
-218 48
-218 49
-48 -49 218
-219 147
-219 218
-147 -218 219
-220 -217
-220 -219
217 219 220
-221 118
-221 -220
-118 220 221
-222 -50
-222 51
50 -51 222
-223 52
-223 -53
-52 53 223
-224 222
-224 223
-222 -223 224
-225 52
-225 53
-52 -53 225
-226 155
-226 225
-155 -225 226
-227 -224
-227 -226
224 226 227
-228 119
-228 -227
-119 227 228
-229 -54
-229 55
54 -55 229
-230 56
-230 -57
-56 57 230
-231 229
-231 230
-229 -230 231
-232 56
-232 57
-56 -57 232
-233 163
-233 232
-163 -232 233
-234 -231
-234 -233
231 233 234
-235 120
-235 -234
-120 234 235
-236 -58
-236 59
58 -59 236
-237 60
-237 -61
-60 61 237
-238 236
-238 237
-236 -237 238
-239 60
-239 61
-60 -61 239
-240 171
-240 239
-171 -239 240
-241 -238
-241 -240
238 240 241
-242 121
-242 -241
-121 241 242
-243 -62
-243 63
62 -63 243
-244 64
-244 -65
-64 65 244
-245 243
-245 244
-243 -244 245
-246 64
-246 65
-64 -65 246
-247 179
-247 246
-179 -246 247
-248 -245
-248 -247
245 247 248
-249 122
-249 -248
-122 248 249
-250 -200
-250 -207
200 207 250
-251 -214
-251 -221
214 221 251
-252 -228
-252 -235
228 235 252
-253 -242
-253 -249
242 249 253
-254 250
-254 251
-250 -251 254
-255 252
-255 253
-252 -253 255
-256 254
-256 255
-254 -255 256
-257 17
-257 256
-17 -256 257
-258 193
-258 257
-193 -257 258
-259 193
-259 -258
-193 258 259
-260 -26
-260 27
26 -27 260
-261 -26
-261 -260
26 260 261
-262 28
-262 261
-28 -261 262
-263 261
-263 -262
-261 262 263
-264 29
-264 263
-29 -263 264
-265 263
-265 -264
-263 264 265
-266 30
-266 265
-30 -265 266
-267 265
-267 -266
-265 266 267
-268 31
-268 267
-31 -267 268
-269 267
-269 -268
-267 268 269
-270 32
-270 269
-32 -269 270
-271 269
-271 -270
-269 270 271
-272 33
-272 271
-33 -271 272
-273 126
-273 197
-126 -197 273
-274 115
-274 273
-115 -273 274
-275 134
-275 204
-134 -204 275
-276 116
-276 275
-116 -275 276
-277 142
-277 211
-142 -211 277
-278 117
-278 277
-117 -277 278
-279 150
-279 218
-150 -218 279
-280 118
-280 279
-118 -279 280
-281 158
-281 225
-158 -225 281
-282 119
-282 281
-119 -281 282
-283 166
-283 232
-166 -232 283
-284 120
-284 283
-120 -283 284
-285 174
-285 239
-174 -239 285
-286 121
-286 285
-121 -285 286
-287 182
-287 246
-182 -246 287
-288 122
-288 287
-122 -287 288
-289 -274
-289 -276
274 276 289
-290 -278
-290 -280
278 280 290
-291 -282
-291 -284
282 284 291
-292 -286
-292 -288
286 288 292
-293 289
-293 290
-289 -290 293
-294 291
-294 292
-291 -292 294
-295 293
-295 294
-293 -294 295
-296 123
-296 195
-123 -195 296
-297 115
-297 296
-115 -296 297
-298 26
-298 -295
-26 295 298
-299 26
-299 -298
-26 298 299
-300 -297
-300 299
297 -299 300
-301 -297
-301 -300
297 300 301
-302 131
-302 202
-131 -202 302
-303 116
-303 302
-116 -302 303
-304 260
-304 -295
-260 295 304
-305 27
-305 -304
-27 304 305
-306 -303
-306 305
303 -305 306
-307 -303
-307 -306
303 306 307
-308 139
-308 209
-139 -209 308
-309 117
-309 308
-117 -308 309
-310 262
-310 -295
-262 295 310
-311 28
-311 -310
-28 310 311
-312 -309
-312 311
309 -311 312
-313 -309
-313 -312
309 312 313
-314 147
-314 216
-147 -216 314
-315 118
-315 314
-118 -314 315
-316 264
-316 -295
-264 295 316
-317 29
-317 -316
-29 316 317
-318 -315
-318 317
315 -317 318
-319 -315
-319 -318
315 318 319
-320 155
-320 223
-155 -223 320
-321 119
-321 320
-119 -320 321
-322 266
-322 -295
-266 295 322
-323 30
-323 -322
-30 322 323
-324 -321
-324 323
321 -323 324
-325 -321
-325 -324
321 324 325
-326 163
-326 230
-163 -230 326
-327 120
-327 326
-120 -326 327
-328 268
-328 -295
-268 295 328
-329 31
-329 -328
-31 328 329
-330 -327
-330 329
327 -329 330
-331 -327
-331 -330
327 330 331
-332 171
-332 237
-171 -237 332
-333 121
-333 332
-121 -332 333
-334 270
-334 -295
-270 295 334
-335 32
-335 -334
-32 334 335
-336 -333
-336 335
333 -335 336
-337 -333
-337 -336
333 336 337
-338 179
-338 244
-179 -244 338
-339 122
-339 338
-122 -338 339
-340 272
-340 -295
-272 295 340
-341 33
-341 -340
-33 340 341
-342 -339
-342 341
339 -341 342
-343 -339
-343 -342
339 342 343
-344 -26
-344 -27
26 27 344
-345 -28
-345 -29
28 29 345
-346 -30
-346 -31
30 31 346
-347 -32
-347 -33
32 33 347
-348 344
-348 345
-344 -345 348
-349 346
-349 347
-346 -347 349
-350 348
-350 349
-348 -349 350
-351 -66
-351 -67
66 67 351
-352 -68
-352 69
68 -69 352
-353 351
-353 352
-351 -352 353
-354 -35
-354 -126
35 126 354
-355 36
-355 126
-36 -126 355
-356 -36
-356 -354
36 354 356
-357 -355
-357 -356
355 356 357
-358 -9
-358 34
9 -34 358
-359 34
-359 -358
-34 358 359
-360 35
-360 -359
-35 359 360
-361 9
-361 -34
-9 34 361
-362 -35
-362 361
35 -361 362
-363 -194
-363 -362
194 362 363
-364 36
-364 360
-36 -360 364
-365 -36
-365 -363
36 363 365
-366 -364
-366 -365
364 365 366
-367 37
-367 -357
-37 357 367
-368 -37
-368 -366
37 366 368
-369 -367
-369 -368
367 368 369
-370 115
-370 -369
-115 369 370
-371 34
-371 -115
-34 115 371
-372 -370
-372 -371
370 371 372
-373 34
-373 350
-34 -350 373
-374 -35
-374 373
35 -373 374
-375 -194
-375 -374
194 374 375
-376 36
-376 123
-36 -123 376
-377 -36
-377 -375
36 375 377
-378 -376
-378 -377
376 377 378
-379 35
-379 -360
-35 360 379
-380 -34
-380 -353
34 353 380
-381 35
-381 380
-35 -380 381
-382 -123
-382 -381
123 381 382
-383 36
-383 -379
-36 379 383
-384 -36
-384 -382
36 382 384
-385 -383
-385 -384
383 384 385
-386 37
-386 -378
-37 378 386
-387 -37
-387 -385
37 385 387
-388 -386
-388 -387
386 387 388
-389 115
-389 -388
-115 388 389
-390 35
-390 -115
-35 115 390
-391 -389
-391 -390
389 390 391
-392 34
-392 -350
-34 350 392
-393 34
-393 35
-34 -35 393
-394 -35
-394 392
35 -392 394
-395 -393
-395 -394
393 394 395
-396 -35
-396 36
35 -36 396
-397 -36
-397 -395
36 395 397
-398 -396
-398 -397
396 397 398
-399 -34
-399 353
34 -353 399
-400 -34
-400 -399
34 399 400
-401 35
-401 -400
-35 400 401
-402 -36
-402 401
36 -401 402
-403 -383
-403 -402
383 402 403
-404 37
-404 -398
-37 398 404
-405 -37
-405 -403
37 403 405
-406 -404
-406 -405
404 405 406
-407 115
-407 -406
-115 406 407
-408 36
-408 -115
-36 115 408
-409 -407
-409 -408
407 408 409
-410 36
-410 -396
-36 396 410
-411 9
-411 34
-9 -34 411
-412 35
-412 411
-35 -411 412
-413 36
-413 412
-36 -412 413
-414 37
-414 -410
-37 410 414
-415 -37
-415 413
37 -413 415
-416 -414
-416 -415
414 415 416
-417 115
-417 -416
-115 416 417
-418 37
-418 -115
-37 115 418
-419 -417
-419 -418
417 418 419
-420 -39
-420 -134
39 134 420
-421 40
-421 134
-40 -134 421
-422 -40
-422 -420
40 420 422
-423 -421
-423 -422
421 422 423
-424 -10
-424 38
10 -38 424
-425 38
-425 -424
-38 424 425
-426 39
-426 -425
-39 425 426
-427 10
-427 -38
-10 38 427
-428 -39
-428 427
39 -427 428
-429 -201
-429 -428
201 428 429
-430 40
-430 426
-40 -426 430
-431 -40
-431 -429
40 429 431
-432 -430
-432 -431
430 431 432
-433 41
-433 -423
-41 423 433
-434 -41
-434 -432
41 432 434
-435 -433
-435 -434
433 434 435
-436 116
-436 -435
-116 435 436
-437 38
-437 -116
-38 116 437
-438 -436
-438 -437
436 437 438
-439 38
-439 350
-38 -350 439
-440 -39
-440 439
39 -439 440
-441 -201
-441 -440
201 440 441
-442 40
-442 131
-40 -131 442
-443 -40
-443 -441
40 441 443
-444 -442
-444 -443
442 443 444
-445 39
-445 -426
-39 426 445
-446 -38
-446 -353
38 353 446
-447 39
-447 446
-39 -446 447
-448 -131
-448 -447
131 447 448
-449 40
-449 -445
-40 445 449
-450 -40
-450 -448
40 448 450
-451 -449
-451 -450
449 450 451
-452 41
-452 -444
-41 444 452
-453 -41
-453 -451
41 451 453
-454 -452
-454 -453
452 453 454
-455 116
-455 -454
-116 454 455
-456 39
-456 -116
-39 116 456
-457 -455
-457 -456
455 456 457
-458 38
-458 -350
-38 350 458
-459 38
-459 39
-38 -39 459
-460 -39
-460 458
39 -458 460
-461 -459
-461 -460
459 460 461
-462 -39
-462 40
39 -40 462
-463 -40
-463 -461
40 461 463
-464 -462
-464 -463
462 463 464
-465 -38
-465 353
38 -353 465
-466 -38
-466 -465
38 465 466
-467 39
-467 -466
-39 466 467
-468 -40
-468 467
40 -467 468
-469 -449
-469 -468
449 468 469
-470 41
-470 -464
-41 464 470
-471 -41
-471 -469
41 469 471
-472 -470
-472 -471
470 471 472
-473 116
-473 -472
-116 472 473
-474 40
-474 -116
-40 116 474
-475 -473
-475 -474
473 474 475
-476 40
-476 -462
-40 462 476
-477 10
-477 38
-10 -38 477
-478 39
-478 477
-39 -477 478
-479 40
-479 478
-40 -478 479
-480 41
-480 -476
-41 476 480
-481 -41
-481 479
41 -479 481
-482 -480
-482 -481
480 481 482
-483 116
-483 -482
-116 482 483
-484 41
-484 -116
-41 116 484
-485 -483
-485 -484
483 484 485
-486 -43
-486 -142
43 142 486
-487 44
-487 142
-44 -142 487
-488 -44
-488 -486
44 486 488
-489 -487
-489 -488
487 488 489
-490 -11
-490 42
11 -42 490
-491 42
-491 -490
-42 490 491
-492 43
-492 -491
-43 491 492
-493 11
-493 -42
-11 42 493
-494 -43
-494 493
43 -493 494
-495 -208
-495 -494
208 494 495
-496 44
-496 492
-44 -492 496
-497 -44
-497 -495
44 495 497
-498 -496
-498 -497
496 497 498
-499 45
-499 -489
-45 489 499
-500 -45
-500 -498
45 498 500
-501 -499
-501 -500
499 500 501
-502 117
-502 -501
-117 501 502
-503 42
-503 -117
-42 117 503
-504 -502
-504 -503
502 503 504
-505 42
-505 350
-42 -350 505
-506 -43
-506 505
43 -505 506
-507 -208
-507 -506
208 506 507
-508 44
-508 139
-44 -139 508
-509 -44
-509 -507
44 507 509
-510 -508
-510 -509
508 509 510
-511 43
-511 -492
-43 492 511
-512 -42
-512 -353
42 353 512
-513 43
-513 512
-43 -512 513
-514 -139
-514 -513
139 513 514
-515 44
-515 -511
-44 511 515
-516 -44
-516 -514
44 514 516
-517 -515
-517 -516
515 516 517
-518 45
-518 -510
-45 510 518
-519 -45
-519 -517
45 517 519
-520 -518
-520 -519
518 519 520
-521 117
-521 -520
-117 520 521
-522 43
-522 -117
-43 117 522
-523 -521
-523 -522
521 522 523
-524 42
-524 -350
-42 350 524
-525 42
-525 43
-42 -43 525
-526 -43
-526 524
43 -524 526
-527 -525
-527 -526
525 526 527
-528 -43
-528 44
43 -44 528
-529 -44
-529 -527
44 527 529
-530 -528
-530 -529
528 529 530
-531 -42
-531 353
42 -353 531
-532 -42
-532 -531
42 531 532
-533 43
-533 -532
-43 532 533
-534 -44
-534 533
44 -533 534
-535 -515
-535 -534
515 534 535
-536 45
-536 -530
-45 530 536
-537 -45
-537 -535
45 535 537
-538 -536
-538 -537
536 537 538
-539 117
-539 -538
-117 538 539
-540 44
-540 -117
-44 117 540
-541 -539
-541 -540
539 540 541
-542 44
-542 -528
-44 528 542
-543 11
-543 42
-11 -42 543
-544 43
-544 543
-43 -543 544
-545 44
-545 544
-44 -544 545
-546 45
-546 -542
-45 542 546
-547 -45
-547 545
45 -545 547
-548 -546
-548 -547
546 547 548
-549 117
-549 -548
-117 548 549
-550 45
-550 -117
-45 117 550
-551 -549
-551 -550
549 550 551
-552 -47
-552 -150
47 150 552
-553 48
-553 150
-48 -150 553
-554 -48
-554 -552
48 552 554
-555 -553
-555 -554
553 554 555
-556 -12
-556 46
12 -46 556
-557 46
-557 -556
-46 556 557
-558 47
-558 -557
-47 557 558
-559 12
-559 -46
-12 46 559
-560 -47
-560 559
47 -559 560
-561 -215
-561 -560
215 560 561
-562 48
-562 558
-48 -558 562
-563 -48
-563 -561
48 561 563
-564 -562
-564 -563
562 563 564
-565 49
-565 -555
-49 555 565
-566 -49
-566 -564
49 564 566
-567 -565
-567 -566
565 566 567
-568 118
-568 -567
-118 567 568
-569 46
-569 -118
-46 118 569
-570 -568
-570 -569
568 569 570
-571 46
-571 350
-46 -350 571
-572 -47
-572 571
47 -571 572
-573 -215
-573 -572
215 572 573
-574 48
-574 147
-48 -147 574
-575 -48
-575 -573
48 573 575
-576 -574
-576 -575
574 575 576
-577 47
-577 -558
-47 558 577
-578 -46
-578 -353
46 353 578
-579 47
-579 578
-47 -578 579
-580 -147
-580 -579
147 579 580
-581 48
-581 -577
-48 577 581
-582 -48
-582 -580
48 580 582
-583 -581
-583 -582
581 582 583
-584 49
-584 -576
-49 576 584
-585 -49
-585 -583
49 583 585
-586 -584
-586 -585
584 585 586
-587 118
-587 -586
-118 586 587
-588 47
-588 -118
-47 118 588
-589 -587
-589 -588
587 588 589
-590 46
-590 -350
-46 350 590
-591 46
-591 47
-46 -47 591
-592 -47
-592 590
47 -590 592
-593 -591
-593 -592
591 592 593
-594 -47
-594 48
47 -48 594
-595 -48
-595 -593
48 593 595
-596 -594
-596 -595
594 595 596
-597 -46
-597 353
46 -353 597
-598 -46
-598 -597
46 597 598
-599 47
-599 -598
-47 598 599
-600 -48
-600 599
48 -599 600
-601 -581
-601 -600
581 600 601
-602 49
-602 -596
-49 596 602
-603 -49
-603 -601
49 601 603
-604 -602
-604 -603
602 603 604
-605 118
-605 -604
-118 604 605
-606 48
-606 -118
-48 118 606
-607 -605
-607 -606
605 606 607
-608 48
-608 -594
-48 594 608
-609 12
-609 46
-12 -46 609
-610 47
-610 609
-47 -609 610
-611 48
-611 610
-48 -610 611
-612 49
-612 -608
-49 608 612
-613 -49
-613 611
49 -611 613
-614 -612
-614 -613
612 613 614
-615 118
-615 -614
-118 614 615
-616 49
-616 -118
-49 118 616
-617 -615
-617 -616
615 616 617
-618 -51
-618 -158
51 158 618
-619 52
-619 158
-52 -158 619
-620 -52
-620 -618
52 618 620
-621 -619
-621 -620
619 620 621
-622 -13
-622 50
13 -50 622
-623 50
-623 -622
-50 622 623
-624 51
-624 -623
-51 623 624
-625 13
-625 -50
-13 50 625
-626 -51
-626 625
51 -625 626
-627 -222
-627 -626
222 626 627
-628 52
-628 624
-52 -624 628
-629 -52
-629 -627
52 627 629
-630 -628
-630 -629
628 629 630
-631 53
-631 -621
-53 621 631
-632 -53
-632 -630
53 630 632
-633 -631
-633 -632
631 632 633
-634 119
-634 -633
-119 633 634
-635 50
-635 -119
-50 119 635
-636 -634
-636 -635
634 635 636
-637 50
-637 350
-50 -350 637
-638 -51
-638 637
51 -637 638
-639 -222
-639 -638
222 638 639
-640 52
-640 155
-52 -155 640
-641 -52
-641 -639
52 639 641
-642 -640
-642 -641
640 641 642
-643 51
-643 -624
-51 624 643
-644 -50
-644 -353
50 353 644
-645 51
-645 644
-51 -644 645
-646 -155
-646 -645
155 645 646
-647 52
-647 -643
-52 643 647
-648 -52
-648 -646
52 646 648
-649 -647
-649 -648
647 648 649
-650 53
-650 -642
-53 642 650
-651 -53
-651 -649
53 649 651
-652 -650
-652 -651
650 651 652
-653 119
-653 -652
-119 652 653
-654 51
-654 -119
-51 119 654
-655 -653
-655 -654
653 654 655
-656 50
-656 -350
-50 350 656
-657 50
-657 51
-50 -51 657
-658 -51
-658 656
51 -656 658
-659 -657
-659 -658
657 658 659
-660 -51
-660 52
51 -52 660
-661 -52
-661 -659
52 659 661
-662 -660
-662 -661
660 661 662
-663 -50
-663 353
50 -353 663
-664 -50
-664 -663
50 663 664
-665 51
-665 -664
-51 664 665
-666 -52
-666 665
52 -665 666
-667 -647
-667 -666
647 666 667
-668 53
-668 -662
-53 662 668
-669 -53
-669 -667
53 667 669
-670 -668
-670 -669
668 669 670
-671 119
-671 -670
-119 670 671
-672 52
-672 -119
-52 119 672
-673 -671
-673 -672
671 672 673
-674 52
-674 -660
-52 660 674
-675 13
-675 50
-13 -50 675
-676 51
-676 675
-51 -675 676
-677 52
-677 676
-52 -676 677
-678 53
-678 -674
-53 674 678
-679 -53
-679 677
53 -677 679
-680 -678
-680 -679
678 679 680
-681 119
-681 -680
-119 680 681
-682 53
-682 -119
-53 119 682
-683 -681
-683 -682
681 682 683
-684 -55
-684 -166
55 166 684
-685 56
-685 166
-56 -166 685
-686 -56
-686 -684
56 684 686
-687 -685
-687 -686
685 686 687
-688 -14
-688 54
14 -54 688
-689 54
-689 -688
-54 688 689
-690 55
-690 -689
-55 689 690
-691 14
-691 -54
-14 54 691
-692 -55
-692 691
55 -691 692
-693 -229
-693 -692
229 692 693
-694 56
-694 690
-56 -690 694
-695 -56
-695 -693
56 693 695
-696 -694
-696 -695
694 695 696
-697 57
-697 -687
-57 687 697
-698 -57
-698 -696
57 696 698
-699 -697
-699 -698
697 698 699
-700 120
-700 -699
-120 699 700
-701 54
-701 -120
-54 120 701
-702 -700
-702 -701
700 701 702
-703 54
-703 350
-54 -350 703
-704 -55
-704 703
55 -703 704
-705 -229
-705 -704
229 704 705
-706 56
-706 163
-56 -163 706
-707 -56
-707 -705
56 705 707
-708 -706
-708 -707
706 707 708
-709 55
-709 -690
-55 690 709
-710 -54
-710 -353
54 353 710
-711 55
-711 710
-55 -710 711
-712 -163
-712 -711
163 711 712
-713 56
-713 -709
-56 709 713
-714 -56
-714 -712
56 712 714
-715 -713
-715 -714
713 714 715
-716 57
-716 -708
-57 708 716
-717 -57
-717 -715
57 715 717
-718 -716
-718 -717
716 717 718
-719 120
-719 -718
-120 718 719
-720 55
-720 -120
-55 120 720
-721 -719
-721 -720
719 720 721
-722 54
-722 -350
-54 350 722
-723 54
-723 55
-54 -55 723
-724 -55
-724 722
55 -722 724
-725 -723
-725 -724
723 724 725
-726 -55
-726 56
55 -56 726
-727 -56
-727 -725
56 725 727
-728 -726
-728 -727
726 727 728
-729 -54
-729 353
54 -353 729
-730 -54
-730 -729
54 729 730
-731 55
-731 -730
-55 730 731
-732 -56
-732 731
56 -731 732
-733 -713
-733 -732
713 732 733
-734 57
-734 -728
-57 728 734
-735 -57
-735 -733
57 733 735
-736 -734
-736 -735
734 735 736
-737 120
-737 -736
-120 736 737
-738 56
-738 -120
-56 120 738
-739 -737
-739 -738
737 738 739
-740 56
-740 -726
-56 726 740
-741 14
-741 54
-14 -54 741
-742 55
-742 741
-55 -741 742
-743 56
-743 742
-56 -742 743
-744 57
-744 -740
-57 740 744
-745 -57
-745 743
57 -743 745
-746 -744
-746 -745
744 745 746
-747 120
-747 -746
-120 746 747
-748 57
-748 -120
-57 120 748
-749 -747
-749 -748
747 748 749
-750 -59
-750 -174
59 174 750
-751 60
-751 174
-60 -174 751
-752 -60
-752 -750
60 750 752
-753 -751
-753 -752
751 752 753
-754 -15
-754 58
15 -58 754
-755 58
-755 -754
-58 754 755
-756 59
-756 -755
-59 755 756
-757 15
-757 -58
-15 58 757
-758 -59
-758 757
59 -757 758
-759 -236
-759 -758
236 758 759
-760 60
-760 756
-60 -756 760
-761 -60
-761 -759
60 759 761
-762 -760
-762 -761
760 761 762
-763 61
-763 -753
-61 753 763
-764 -61
-764 -762
61 762 764
-765 -763
-765 -764
763 764 765
-766 121
-766 -765
-121 765 766
-767 58
-767 -121
-58 121 767
-768 -766
-768 -767
766 767 768
-769 58
-769 350
-58 -350 769
-770 -59
-770 769
59 -769 770
-771 -236
-771 -770
236 770 771
-772 60
-772 171
-60 -171 772
-773 -60
-773 -771
60 771 773
-774 -772
-774 -773
772 773 774
-775 59
-775 -756
-59 756 775
-776 -58
-776 -353
58 353 776
-777 59
-777 776
-59 -776 777
-778 -171
-778 -777
171 777 778
-779 60
-779 -775
-60 775 779
-780 -60
-780 -778
60 778 780
-781 -779
-781 -780
779 780 781
-782 61
-782 -774
-61 774 782
-783 -61
-783 -781
61 781 783
-784 -782
-784 -783
782 783 784
-785 121
-785 -784
-121 784 785
-786 59
-786 -121
-59 121 786
-787 -785
-787 -786
785 786 787
-788 58
-788 -350
-58 350 788
-789 58
-789 59
-58 -59 789
-790 -59
-790 788
59 -788 790
-791 -789
-791 -790
789 790 791
-792 -59
-792 60
59 -60 792
-793 -60
-793 -791
60 791 793
-794 -792
-794 -793
792 793 794
-795 -58
-795 353
58 -353 795
-796 -58
-796 -795
58 795 796
-797 59
-797 -796
-59 796 797
-798 -60
-798 797
60 -797 798
-799 -779
-799 -798
779 798 799
-800 61
-800 -794
-61 794 800
-801 -61
-801 -799
61 799 801
-802 -800
-802 -801
800 801 802
-803 121
-803 -802
-121 802 803
-804 60
-804 -121
-60 121 804
-805 -803
-805 -804
803 804 805
-806 60
-806 -792
-60 792 806
-807 15
-807 58
-15 -58 807
-808 59
-808 807
-59 -807 808
-809 60
-809 808
-60 -808 809
-810 61
-810 -806
-61 806 810
-811 -61
-811 809
61 -809 811
-812 -810
-812 -811
810 811 812
-813 121
-813 -812
-121 812 813
-814 61
-814 -121
-61 121 814
-815 -813
-815 -814
813 814 815
-816 -63
-816 -182
63 182 816
-817 64
-817 182
-64 -182 817
-818 -64
-818 -816
64 816 818
-819 -817
-819 -818
817 818 819
-820 -16
-820 62
16 -62 820
-821 62
-821 -820
-62 820 821
-822 63
-822 -821
-63 821 822
-823 16
-823 -62
-16 62 823
-824 -63
-824 823
63 -823 824
-825 -243
-825 -824
243 824 825
-826 64
-826 822
-64 -822 826
-827 -64
-827 -825
64 825 827
-828 -826
-828 -827
826 827 828
-829 65
-829 -819
-65 819 829
-830 -65
-830 -828
65 828 830
-831 -829
-831 -830
829 830 831
-832 122
-832 -831
-122 831 832
-833 62
-833 -122
-62 122 833
-834 -832
-834 -833
832 833 834
-835 62
-835 350
-62 -350 835
-836 -63
-836 835
63 -835 836
-837 -243
-837 -836
243 836 837
-838 64
-838 179
-64 -179 838
-839 -64
-839 -837
64 837 839
-840 -838
-840 -839
838 839 840
-841 63
-841 -822
-63 822 841
-842 -62
-842 -353
62 353 842
-843 63
-843 842
-63 -842 843
-844 -179
-844 -843
179 843 844
-845 64
-845 -841
-64 841 845
-846 -64
-846 -844
64 844 846
-847 -845
-847 -846
845 846 847
-848 65
-848 -840
-65 840 848
-849 -65
-849 -847
65 847 849
-850 -848
-850 -849
848 849 850
-851 122
-851 -850
-122 850 851
-852 63
-852 -122
-63 122 852
-853 -851
-853 -852
851 852 853
-854 62
-854 -350
-62 350 854
-855 62
-855 63
-62 -63 855
-856 -63
-856 854
63 -854 856
-857 -855
-857 -856
855 856 857
-858 -63
-858 64
63 -64 858
-859 -64
-859 -857
64 857 859
-860 -858
-860 -859
858 859 860
-861 -62
-861 353
62 -353 861
-862 -62
-862 -861
62 861 862
-863 63
-863 -862
-63 862 863
-864 -64
-864 863
64 -863 864
-865 -845
-865 -864
845 864 865
-866 65
-866 -860
-65 860 866
-867 -65
-867 -865
65 865 867
-868 -866
-868 -867
866 867 868
-869 122
-869 -868
-122 868 869
-870 64
-870 -122
-64 122 870
-871 -869
-871 -870
869 870 871
-872 64
-872 -858
-64 858 872
-873 16
-873 62
-16 -62 873
-874 63
-874 873
-63 -873 874
-875 64
-875 874
-64 -874 875
-876 65
-876 -872
-65 872 876
-877 -65
-877 875
65 -875 877
-878 -876
-878 -877
876 877 878
-879 122
-879 -878
-122 878 879
-880 65
-880 -122
-65 122 880
-881 -879
-881 -880
879 880 881
-882 124
-882 393
-124 -393 882
-883 115
-883 882
-115 -882 883
-884 132
-884 459
-132 -459 884
-885 116
-885 884
-116 -884 885
-886 140
-886 525
-140 -525 886
-887 117
-887 886
-117 -886 887
-888 148
-888 591
-148 -591 888
-889 118
-889 888
-118 -888 889
-890 156
-890 657
-156 -657 890
-891 119
-891 890
-119 -890 891
-892 164
-892 723
-164 -723 892
-893 120
-893 892
-120 -892 893
-894 172
-894 789
-172 -789 894
-895 121
-895 894
-121 -894 895
-896 180
-896 855
-180 -855 896
-897 122
-897 896
-122 -896 897
-898 -883
-898 -885
883 885 898
-899 -887
-899 -889
887 889 899
-900 -891
-900 -893
891 893 900
-901 -895
-901 -897
895 897 901
-902 898
-902 899
-898 -899 902
-903 900
-903 901
-900 -901 903
-904 902
-904 903
-902 -903 904
-905 127
-905 194
-127 -194 905
-906 115
-906 905
-115 -905 906
-907 135
-907 201
-135 -201 907
-908 116
-908 907
-116 -907 908
-909 143
-909 208
-143 -208 909
-910 117
-910 909
-117 -909 910
-911 151
-911 215
-151 -215 911
-912 118
-912 911
-118 -911 912
-913 159
-913 222
-159 -222 913
-914 119
-914 913
-119 -913 914
-915 167
-915 229
-167 -229 915
-916 120
-916 915
-120 -915 916
-917 175
-917 236
-175 -236 917
-918 121
-918 917
-121 -917 918
-919 183
-919 243
-183 -243 919
-920 122
-920 919
-122 -919 920
-921 -906
-921 -908
906 908 921
-922 -910
-922 -912
910 912 922
-923 -914
-923 -916
914 916 923
-924 -918
-924 -920
918 920 924
-925 921
-925 922
-921 -922 925
-926 923
-926 924
-923 -924 926
-927 925
-927 926
-925 -926 927
-928 -66
-928 67
66 -67 928
-929 66
-929 -67
-66 67 929
-930 -928
-930 -929
928 929 930
-931 66
-931 67
-66 -67 931
-932 68
-932 -931
-68 931 932
-933 -68
-933 931
68 -931 933
-934 -932
-934 -933
932 933 934
-935 68
-935 931
-68 -931 935
-936 69
-936 -935
-69 935 936
-937 -69
-937 935
69 -935 937
-938 -936
-938 -937
936 937 938
-939 69
-939 935
-69 -935 939
-940 -351
-940 -931
351 931 940
-941 68
-941 -351
-68 351 941
-942 -68
-942 351
68 -351 942
-943 -941
-943 -942
941 942 943
-944 69
-944 -942
-69 942 944
-945 -69
-945 942
69 -942 945
-946 -944
-946 -945
944 945 946
-947 -66
-947 -927
66 927 947
-948 66
-948 927
-66 -927 948
-949 -947
-949 -948
947 948 949
-950 -66
-950 -904
66 904 950
-951 904
-951 -949
-904 949 951
-952 -950
-952 -951
950 951 952
-953 -927
-953 -940
927 940 953
-954 67
-954 927
-67 -927 954
-955 -953
-955 -954
953 954 955
-956 -904
-956 -930
904 930 956
-957 904
-957 -955
-904 955 957
-958 -956
-958 -957
956 957 958
-959 -927
-959 -943
927 943 959
-960 68
-960 927
-68 -927 960
-961 -959
-961 -960
959 960 961
-962 -904
-962 -934
904 934 962
-963 904
-963 -961
-904 961 963
-964 -962
-964 -963
962 963 964
-965 -927
-965 -946
927 946 965
-966 69
-966 927
-69 -927 966
-967 -965
-967 -966
965 966 967
-968 -904
-968 -938
904 938 968
-969 904
-969 -967
-904 967 969
-970 -968
-970 -969
968 969 970
-971 195
-971 393
-195 -393 971
-972 -26
-972 971
26 -971 972
-973 202
-973 459
-202 -459 973
-974 -27
-974 973
27 -973 974
-975 209
-975 525
-209 -525 975
-976 -28
-976 975
28 -975 976
-977 216
-977 591
-216 -591 977
-978 -29
-978 977
29 -977 978
-979 223
-979 657
-223 -657 979
-980 -30
-980 979
30 -979 980
-981 230
-981 723
-230 -723 981
-982 -31
-982 981
31 -981 982
-983 237
-983 789
-237 -789 983
-984 -32
-984 983
32 -983 984
-985 244
-985 855
-244 -855 985
-986 -33
-986 985
33 -985 986
-987 972
-987 -974
-972 974 987
-988 -972
-988 974
972 -974 988
-989 -987
-989 -988
987 988 989
-990 972
-990 974
-972 -974 990
-991 -976
-991 -989
976 989 991
-992 976
-992 989
-976 -989 992
-993 -991
-993 -992
991 992 993
-994 976
-994 -989
-976 989 994
-995 990
-995 -994
-990 994 995
-996 -990
-996 994
990 -994 996
-997 -995
-997 -996
995 996 997
-998 990
-998 994
-990 -994 998
-999 -978
-999 -993
978 993 999
-1000 978
-1000 993
-978 -993 1000
-1001 -999
-1001 -1000
999 1000 1001
-1002 978
-1002 -993
-978 993 1002
-1003 -998
-1003 -1001
998 1001 1003
-1004 998
-1004 1001
-998 -1001 1004
-1005 -1003
-1005 -1004
1003 1004 1005
-1006 998
-1006 -1001
-998 1001 1006
-1007 -1002
-1007 -1006
1002 1006 1007
-1008 -997
-1008 1007
997 -1007 1008
-1009 997
-1009 -1007
-997 1007 1009
-1010 -1008
-1010 -1009
1008 1009 1010
-1011 -997
-1011 -1007
997 1007 1011
-1012 -980
-1012 -1005
980 1005 1012
-1013 980
-1013 1005
-980 -1005 1013
-1014 -1012
-1014 -1013
1012 1013 1014
-1015 980
-1015 -1005
-980 1005 1015
-1016 -1010
-1016 -1015
1010 1015 1016
-1017 1010
-1017 1015
-1010 -1015 1017
-1018 -1016
-1018 -1017
1016 1017 1018
-1019 -1010
-1019 1015
1010 -1015 1019
-1020 1011
-1020 -1019
-1011 1019 1020
-1021 -1011
-1021 1019
1011 -1019 1021
-1022 -1020
-1022 -1021
1020 1021 1022
-1023 1011
-1023 1019
-1011 -1019 1023
-1024 -982
-1024 -1014
982 1014 1024
-1025 982
-1025 1014
-982 -1014 1025
-1026 -1024
-1026 -1025
1024 1025 1026
-1027 982
-1027 -1014
-982 1014 1027
-1028 -1023
-1028 -1026
1023 1026 1028
-1029 1023
-1029 1026
-1023 -1026 1029
-1030 -1028
-1030 -1029
1028 1029 1030
-1031 1023
-1031 -1026
-1023 1026 1031
-1032 -1027
-1032 -1031
1027 1031 1032
-1033 -1018
-1033 1032
1018 -1032 1033
-1034 1018
-1034 -1032
-1018 1032 1034
-1035 -1033
-1035 -1034
1033 1034 1035
-1036 -1018
-1036 -1032
1018 1032 1036
-1037 -1022
-1037 -1036
1022 1036 1037
-1038 1022
-1038 1036
-1022 -1036 1038
-1039 -1037
-1039 -1038
1037 1038 1039
-1040 -1022
-1040 1036
1022 -1036 1040
-1041 -984
-1041 -1030
984 1030 1041
-1042 984
-1042 1030
-984 -1030 1042
-1043 -1041
-1043 -1042
1041 1042 1043
-1044 984
-1044 -1030
-984 1030 1044
-1045 -1040
-1045 -1043
1040 1043 1045
-1046 1040
-1046 1043
-1040 -1043 1046
-1047 -1045
-1047 -1046
1045 1046 1047
-1048 1040
-1048 -1043
-1040 1043 1048
-1049 -1044
-1049 -1048
1044 1048 1049
-1050 -1035
-1050 1049
1035 -1049 1050
-1051 1035
-1051 -1049
-1035 1049 1051
-1052 -1050
-1052 -1051
1050 1051 1052
-1053 -1035
-1053 -1049
1035 1049 1053
-1054 -1039
-1054 -1053
1039 1053 1054
-1055 1039
-1055 1053
-1039 -1053 1055
-1056 -1054
-1056 -1055
1054 1055 1056
-1057 -1039
-1057 1053
1039 -1053 1057
-1058 -986
-1058 -1047
986 1047 1058
-1059 986
-1059 1047
-986 -1047 1059
-1060 -1058
-1060 -1059
1058 1059 1060
-1061 986
-1061 -1047
-986 1047 1061
-1062 -1057
-1062 -1060
1057 1060 1062
-1063 1057
-1063 1060
-1057 -1060 1063
-1064 -1062
-1064 -1063
1062 1063 1064
-1065 1057
-1065 -1060
-1057 1060 1065
-1066 -1061
-1066 -1065
1061 1065 1066
-1067 -1052
-1067 1066
1052 -1066 1067
-1068 1052
-1068 -1066
-1052 1066 1068
-1069 -1067
-1069 -1068
1067 1068 1069
-1070 -1052
-1070 -1066
1052 1066 1070
-1071 -1056
-1071 -1070
1056 1070 1071
-1072 1056
-1072 1070
-1056 -1070 1072
-1073 -1071
-1073 -1072
1071 1072 1073
-1074 -1056
-1074 1070
1056 -1070 1074
-1075 -1064
-1075 1069
1064 -1069 1075
-1076 1069
-1076 -1075
-1069 1075 1076
-1077 1073
-1077 -1076
-1073 1076 1077
-1078 1073
-1078 -1077
-1073 1077 1078
-1079 1074
-1079 -1078
-1074 1078 1079
-1080 -350
-1080 -353
350 353 1080
-1081 -904
-1081 939
904 -939 1081
-1082 -927
-1082 945
927 -945 1082
-1083 -1079
-1083 -1081
1079 1081 1083
-1084 -1080
-1084 -1082
1080 1082 1084
-1085 1083
-1085 1084
-1083 -1084 1085
-1085
